2023/05/23
Julia is now 1.9.0
previous version was 1.7.2
2023/11/29
gurobi is now 11.0.0
previous version was 10.0.2
solving instance uflp nldep holmberg 66 exp
presolving:
(round 1, fast)       30 del vars, 30 del conss, 0 add conss, 30 chg bounds, 0 chg sides, 0 chg coeffs, 0 upgd conss, 0 impls, 0 clqs
(round 2, exhaustive) 30 del vars, 30 del conss, 0 add conss, 30 chg bounds, 0 chg sides, 0 chg coeffs, 6000 upgd conss, 0 impls, 0 clqs
   (0.2s) probing cycle finished: starting next cycle
   (0.2s) symmetry computation started: requiring (bin +, int -, cont -), (fixed: bin -, int +, cont +)
   (0.3s) no symmetry present
presolving (3 rounds: 3 fast, 2 medium, 2 exhaustive):
 30 deleted vars, 30 deleted constraints, 0 added constraints, 30 tightened bounds, 0 added holes, 0 changed sides, 0 changed coefficients
 6030 implications, 0 cliques
presolved problem has 6060 variables (30 bin, 0 int, 0 impl, 6030 cont) and 6230 constraints
   6000 constraints of type <varbound>
    200 constraints of type <linear>
     30 constraints of type <nonlinear>
Presolving Time: 0.25

 time | node  | left  |LP iter|LP it/n|mem/heur|mdpt |vars |cons |rows |cuts |sepa|confs|strbr|  dualbound   | primalbound  |  gap   | compl. 
p 0.4s|     1 |     0 |   410 |     - |shiftand|   0 |6180 |6230 |6440 |   0 |  0 |   0 |   0 |-1.144409e-04 | 9.955746e+04 |    Inf | unknown
t 0.4s|     1 |     0 |   410 |     - |  trysol|   0 |6180 |6230 |6440 |   0 |  0 |   0 |   0 |-1.144409e-04 | 3.139348e+04 |    Inf | unknown
  0.5s|     1 |     0 |  1162 |     - |    70M |   0 |6180 |6230 |6440 |   0 |  0 |   0 |   0 | 2.384827e+04 | 3.139348e+04 |  31.64%| unknown
L 6.0s|     1 |     0 |  1162 |     - |  subnlp|   0 |6180 |6230 |6440 |   0 |  0 |   0 |   0 | 2.384827e+04 | 2.385260e+04 |   0.02%| unknown
  6.0s|     1 |     0 |  1174 |     - |    70M |   0 |6180 |6230 |6452 |  12 |  1 |   0 |   0 | 2.384827e+04 | 2.385260e+04 |   0.02%| unknown
  6.0s|     1 |     0 |  1174 |     - |    70M |   0 |6180 |6230 |6452 |  12 |  1 |   0 |   0 | 2.384827e+04 | 2.385260e+04 |   0.02%| unknown
  6.1s|     1 |     0 |  1186 |     - |    70M |   0 |6180 |6230 |6464 |  24 |  2 |   0 |   0 | 2.384827e+04 | 2.385260e+04 |   0.02%| unknown
  8.6s|     1 |     0 |  9014 |     - |   110M |   0 |6180 |3830 |6464 |  24 |  4 |   0 |   0 | 2.384986e+04 | 2.385260e+04 |   0.01%| unknown
  8.7s|     1 |     0 |  9044 |     - |   110M |   0 |6180 |3830 |6469 |  29 |  5 |   0 |   0 | 2.384986e+04 | 2.385260e+04 |   0.01%| unknown
  8.7s|     1 |     0 |  9047 |     - |   110M |   0 |6180 |3830 |6472 |  32 |  6 |   0 |   0 | 2.384986e+04 | 2.385260e+04 |   0.01%| unknown
 25.7s|     1 |     0 | 17832 |     - |   398M |   0 |6180 |3830 |6472 |  32 |  8 |   0 |   0 | 2.385074e+04 | 2.385260e+04 |   0.01%| unknown
 25.8s|     1 |     0 | 17879 |     - |   398M |   0 |6180 |3830 |4105 |  49 |  9 |   0 |   0 | 2.385115e+04 | 2.385260e+04 |   0.01%| unknown
 25.9s|     1 |     0 | 17879 |     - |   398M |   0 |6180 |3830 |4105 |  49 |  9 |   0 |   0 | 2.385115e+04 | 2.385260e+04 |   0.01%| unknown
 26.0s|     1 |     0 | 17886 |     - |   398M |   0 |6180 |3830 |4111 |  55 | 10 |   0 |   0 | 2.385121e+04 | 2.385260e+04 |   0.01%| unknown
 38.2s|     1 |     0 | 27363 |     - |   617M |   0 |6180 |3830 |4111 |  55 | 12 |   0 |   0 | 2.385197e+04 | 2.385260e+04 |   0.00%| unknown
 time | node  | left  |LP iter|LP it/n|mem/heur|mdpt |vars |cons |rows |cuts |sepa|confs|strbr|  dualbound   | primalbound  |  gap   | compl. 
 38.3s|     1 |     0 | 27390 |     - |   617M |   0 |6180 |3830 |4033 |  75 | 13 |   0 |   0 | 2.385243e+04 | 2.385260e+04 |   0.00%| unknown
 38.5s|     1 |     0 | 27390 |     - |   617M |   0 |6180 |3830 |4032 |  75 | 13 |   0 |   0 | 2.385243e+04 | 2.385260e+04 |   0.00%| unknown
 38.6s|     1 |     0 | 27398 |     - |   617M |   0 |6180 |3830 |4038 |  81 | 14 |   0 |   0 | 2.385243e+04 | 2.385260e+04 |   0.00%| unknown
 41.1s|     1 |     0 | 28928 |     - |   658M |   0 |6180 |3830 |4038 |  81 | 16 |   0 |   0 | 2.385243e+04 | 2.385260e+04 |   0.00%| unknown
 41.2s|     1 |     0 | 28939 |     - |   658M |   0 |6180 |3830 |4044 |  97 | 17 |   0 |   0 | 2.385247e+04 | 2.385260e+04 |   0.00%| unknown
 41.4s|     1 |     0 | 28939 |     - |   658M |   0 |6180 |3830 |4044 |  97 | 17 |   0 |   0 | 2.385247e+04 | 2.385260e+04 |   0.00%| unknown
 41.8s|     1 |     0 | 28939 |     - |   658M |   0 |6180 |3830 |4044 |  97 | 19 |   0 |   0 | 2.385247e+04 | 2.385260e+04 |   0.00%| unknown
L73.8s|     1 |     0 | 28939 |     - |  subnlp|   0 |6180 |3830 |4044 |  97 | 21 |   0 |   0 | 2.385247e+04 | 2.385260e+04 |   0.00%| unknown
(run 1, node 1) restarting after 12 global fixings of integer variables

presolving:
(round 1, fast)       132 del vars, 0 del conss, 0 add conss, 0 chg bounds, 0 chg sides, 3600 chg coeffs, 0 upgd conss, 6030 impls, 0 clqs
presolving (2 rounds: 2 fast, 1 medium, 1 exhaustive):
 132 deleted vars, 0 deleted constraints, 0 added constraints, 0 tightened bounds, 0 added holes, 0 changed sides, 3600 changed coefficients
 6030 implications, 0 cliques
presolved problem has 6048 variables (18 bin, 0 int, 0 impl, 6030 cont) and 3830 constraints
   3600 constraints of type <varbound>
    200 constraints of type <linear>
     30 constraints of type <nonlinear>
Presolving Time: 0.36
transformed 2/5 original solutions to the transformed problem space

 time | node  | left  |LP iter|LP it/n|mem/heur|mdpt |vars |cons |rows |cuts |sepa|confs|strbr|  dualbound   | primalbound  |  gap   | compl. 
 74.5s|     1 |     0 | 29382 |     - |   381M |   0 |6168 |3830 |3907 |   0 |  0 |   0 |   0 | 2.385247e+04 | 2.385260e+04 |   0.00%| unknown
 80.0s|     1 |     0 | 29382 |     - |   382M |   0 |6168 |3830 |3907 |   0 |  0 |   0 |   0 | 2.385247e+04 | 2.385260e+04 |   0.00%| unknown
 80.1s|     1 |     0 | 29382 |     - |   382M |   0 |6168 |3830 |3524 |   0 |  1 |   0 |   0 | 2.385247e+04 | 2.385260e+04 |   0.00%| unknown
 95.3s|     1 |     0 | 43902 |     - |   594M |   0 |6168 | 991 |3524 |   0 |  3 |   0 |   0 | 2.385247e+04 | 2.385260e+04 |   0.00%| unknown
  129s|     1 |     2 | 43902 |     - |   594M |   0 |6168 | 991 |3524 |   0 |  5 |   0 |   0 | 2.385247e+04 | 2.385260e+04 |   0.00%| unknown
d 360s|    50 |    41 | 43934 | 849.6 |nlpdivin|  43 |6168 | 964 |3468 |  11 |  1 |   0 |   0 | 2.385252e+04 | 2.385259e+04 |   0.00%|  77.98%
  367s|   100 |    11 | 43941 | 424.9 |   892M |  53 |6168 | 964 |3468 |  17 |  1 |   0 |   0 | 2.385252e+04 | 2.385259e+04 |   0.00%|  96.10%
  372s|   200 |    21 | 43973 | 212.6 |   893M |  78 |6168 | 964 |3472 |  48 |  1 |   0 |   0 | 2.385252e+04 | 2.385259e+04 |   0.00%|  96.10%
  571s|   300 |    35 | 43997 | 141.8 |   894M |  95 |6168 | 964 |3468 |  72 |  1 |   0 |   0 | 2.385252e+04 | 2.385259e+04 |   0.00%|  96.10%
  581s|   400 |    37 | 44023 | 106.4 |   894M | 110 |6168 | 964 |3470 |  97 |  0 |   0 |   0 | 2.385252e+04 | 2.385259e+04 |   0.00%|  99.01%
  608s|   500 |    47 | 44042 |  85.2 |   895M | 138 |6168 | 964 |3470 | 114 |  0 |   0 |   0 | 2.385252e+04 | 2.385259e+04 |   0.00%|  99.01%
  615s|   600 |    55 | 44055 |  71.0 |   895M | 165 |6168 | 964 |3474 | 126 |  0 |   0 |   0 | 2.385252e+04 | 2.385259e+04 |   0.00%|  99.01%
  621s|   700 |    67 | 44079 |  60.9 |   896M | 181 |6168 | 964 |3473 | 144 |  1 |   0 |   0 | 2.385252e+04 | 2.385259e+04 |   0.00%|  99.01%
  626s|   800 |    79 | 44096 |  53.3 |   896M | 189 |6168 | 964 |3476 | 161 |  0 |   0 |   0 | 2.385252e+04 | 2.385259e+04 |   0.00%|  99.01%
  736s|   900 |    83 | 44112 |  47.4 |   896M | 202 |6168 | 964 |3470 | 173 |  0 |   0 |   0 | 2.385252e+04 | 2.385259e+04 |   0.00%|  99.01%
 time | node  | left  |LP iter|LP it/n|mem/heur|mdpt |vars |cons |rows |cuts |sepa|confs|strbr|  dualbound   | primalbound  |  gap   | compl. 
  740s|  1000 |    93 | 44136 |  42.7 |   897M | 215 |6168 | 964 |3481 | 192 |  1 |   0 |   0 | 2.385252e+04 | 2.385259e+04 |   0.00%|  99.01%
  744s|  1100 |   109 | 44142 |  38.8 |   898M | 223 |6168 | 964 |   0 | 198 |  0 |   0 |   0 | 2.385252e+04 | 2.385259e+04 |   0.00%|  99.01%
  956s|  1200 |   139 | 44163 |  35.6 |   898M | 226 |6168 | 964 |3481 | 206 |  1 |   0 |   0 | 2.385252e+04 | 2.385259e+04 |   0.00%|  99.01%
  959s|  1300 |   153 | 44165 |  32.9 |   898M | 232 |6168 | 964 |3481 | 208 |  1 |   0 |   0 | 2.385252e+04 | 2.385259e+04 |   0.00%|  99.01%
  962s|  1400 |   185 | 44177 |  30.5 |   899M | 243 |6168 | 964 |3483 | 219 |  1 |   0 |   0 | 2.385252e+04 | 2.385259e+04 |   0.00%|  99.01%
  965s|  1500 |   203 | 44184 |  28.5 |   899M | 248 |6168 | 964 |3483 | 222 |  0 |   0 |   0 | 2.385252e+04 | 2.385259e+04 |   0.00%|  99.01%
  968s|  1600 |   235 | 44205 |  26.7 |   899M | 251 |6168 | 964 |3489 | 242 |  1 |   0 |   0 | 2.385252e+04 | 2.385259e+04 |   0.00%|  99.01%
  970s|  1700 |   253 | 44222 |  25.2 |   899M | 257 |6168 | 964 |3487 | 248 |  0 |   0 |   0 | 2.385252e+04 | 2.385259e+04 |   0.00%|  99.01%
  973s|  1800 |   273 | 44230 |  23.8 |   900M | 262 |6168 | 964 |3483 | 255 |  1 |   0 |   0 | 2.385255e+04 | 2.385259e+04 |   0.00%|  99.22%
  976s|  1900 |   285 | 44237 |  22.5 |   900M | 264 |6168 | 964 |3483 | 259 |  1 |   0 |   0 | 2.385255e+04 | 2.385259e+04 |   0.00%|  99.22%
  979s|  2000 |   297 | 44239 |  21.4 |   900M | 271 |6168 | 964 |3483 | 260 |  1 |   0 |   0 | 2.385255e+04 | 2.385259e+04 |   0.00%|  99.22%
  982s|  2100 |   321 | 44251 |  20.4 |   901M | 274 |6168 | 964 |3484 | 271 |  1 |   0 |   0 | 2.385255e+04 | 2.385259e+04 |   0.00%|  99.22%
  985s|  2200 |   337 | 44264 |  19.5 |   901M | 276 |6168 | 964 |3487 | 281 |  1 |   0 |   0 | 2.385255e+04 | 2.385259e+04 |   0.00%|  99.22%
 1211s|  2300 |   351 | 44272 |  18.6 |   901M | 280 |6168 | 964 |3487 | 286 |  0 |   0 |   0 | 2.385255e+04 | 2.385259e+04 |   0.00%|  99.22%
 1220s|  2400 |   363 | 44276 |  17.8 |   901M | 283 |6168 | 964 |3484 | 290 |  1 |   0 |   0 | 2.385255e+04 | 2.385259e+04 |   0.00%|  99.22%
 time | node  | left  |LP iter|LP it/n|mem/heur|mdpt |vars |cons |rows |cuts |sepa|confs|strbr|  dualbound   | primalbound  |  gap   | compl. 
 1434s|  2500 |   379 | 44290 |  17.1 |   901M | 285 |6168 | 964 |3487 | 302 |  0 |   0 |   0 | 2.385255e+04 | 2.385259e+04 |   0.00%|  99.22%
 1436s|  2600 |   391 | 44301 |  16.5 |   901M | 292 |6168 | 964 |3485 | 312 |  1 |   0 |   0 | 2.385255e+04 | 2.385259e+04 |   0.00%|  99.22%
 1438s|  2700 |   411 | 44318 |  15.9 |   902M | 294 |6168 | 964 |   0 | 325 |  0 |   0 |   0 | 2.385255e+04 | 2.385259e+04 |   0.00%|  99.22%
 1441s|  2800 |   429 | 44329 |  15.3 |   902M | 295 |6168 | 964 |   0 | 334 |  0 |   0 |   0 | 2.385255e+04 | 2.385259e+04 |   0.00%|  99.22%
 1443s|  2900 |   445 | 44342 |  14.8 |   902M | 303 |6168 | 964 |3487 | 346 |  2 |   0 |   0 | 2.385255e+04 | 2.385259e+04 |   0.00%|  99.22%
 1445s|  3000 |   457 | 44359 |  14.3 |   902M | 305 |6168 | 964 |3489 | 363 |  0 |   0 |   0 | 2.385255e+04 | 2.385259e+04 |   0.00%|  99.22%
 1448s|  3100 |   469 | 44376 |  13.8 |   902M | 305 |6168 | 964 |3490 | 377 |  1 |   0 |   0 | 2.385256e+04 | 2.385259e+04 |   0.00%|  99.24%
 1450s|  3200 |   481 | 44386 |  13.4 |   903M | 313 |6168 | 964 |   0 | 388 |  0 |   0 |   0 | 2.385256e+04 | 2.385259e+04 |   0.00%|  99.24%
 1453s|  3300 |   493 | 44404 |  13.0 |   903M | 318 |6168 | 964 |3487 | 403 |  1 |   0 |   0 | 2.385256e+04 | 2.385259e+04 |   0.00%|  99.24%
 1455s|  3400 |   511 | 44424 |  12.6 |   903M | 318 |6168 | 964 |   0 | 419 |  0 |   0 |   0 | 2.385256e+04 | 2.385259e+04 |   0.00%|  99.24%
 1457s|  3500 |   529 | 44461 |  12.3 |   904M | 318 |6168 | 964 |3484 | 448 |  1 |   0 |   0 | 2.385256e+04 | 2.385259e+04 |   0.00%|  99.30%
 1459s|  3600 |   539 | 44472 |  11.9 |   904M | 321 |6168 | 964 |3489 | 458 |  1 |   0 |   0 | 2.385256e+04 | 2.385259e+04 |   0.00%|  99.55%
 1461s|  3700 |   549 | 44477 |  11.6 |   905M | 323 |6168 | 964 |3486 | 462 |  1 |   0 |   0 | 2.385256e+04 | 2.385259e+04 |   0.00%|  99.55%
 1463s|  3800 |   561 | 44487 |  11.3 |   905M | 324 |6168 | 964 |3489 | 471 |  1 |   0 |   0 | 2.385256e+04 | 2.385259e+04 |   0.00%|  99.55%
 1714s|  3900 |   573 | 44494 |  11.0 |   905M | 331 |6168 | 964 |3488 | 476 |  1 |   0 |   0 | 2.385256e+04 | 2.385259e+04 |   0.00%|  99.55%
 time | node  | left  |LP iter|LP it/n|mem/heur|mdpt |vars |cons |rows |cuts |sepa|confs|strbr|  dualbound   | primalbound  |  gap   | compl. 
 1717s|  4000 |   585 | 44501 |  10.8 |   905M | 336 |6168 | 964 |3489 | 483 |  1 |   0 |   0 | 2.385256e+04 | 2.385259e+04 |   0.00%|  99.55%
 1720s|  4100 |   601 | 44512 |  10.5 |   905M | 339 |6168 | 964 |3488 | 493 |  1 |   0 |   0 | 2.385256e+04 | 2.385259e+04 |   0.00%|  99.55%
 1722s|  4200 |   615 | 44528 |  10.3 |   905M | 341 |6168 | 964 |   0 | 505 |  0 |   0 |   0 | 2.385256e+04 | 2.385259e+04 |   0.00%|  99.55%
 1723s|  4300 |   631 | 44545 |  10.0 |   906M | 344 |6168 | 964 |   0 | 519 |  0 |   0 |   0 | 2.385256e+04 | 2.385259e+04 |   0.00%|  99.55%
 1724s|  4400 |   649 | 44567 |   9.8 |   906M | 359 |6168 | 964 |   0 | 535 |  0 |   0 |   0 | 2.385256e+04 | 2.385259e+04 |   0.00%|  99.55%
 1927s|  4500 |   667 | 44590 |   9.6 |   906M | 366 |6168 | 964 |   0 | 549 |  0 |   0 |   0 | 2.385256e+04 | 2.385259e+04 |   0.00%|  99.55%
 1937s|  4600 |   679 | 44609 |   9.4 |   906M | 376 |6168 | 964 |3501 | 562 |  1 |   0 |   0 | 2.385256e+04 | 2.385259e+04 |   0.00%|  99.55%
 1938s|  4700 |   683 | 44624 |   9.2 |   906M | 378 |6168 | 964 |   0 | 573 |  0 |   0 |   0 | 2.385256e+04 | 2.385259e+04 |   0.00%|  99.55%
 1939s|  4800 |   693 | 44639 |   9.0 |   906M | 378 |6168 | 964 |   0 | 582 |  0 |   0 |   0 | 2.385256e+04 | 2.385259e+04 |   0.00%|  99.55%
 1940s|  4900 |   699 | 44653 |   8.8 |   906M | 387 |6168 | 964 |   0 | 591 |  0 |   0 |   0 | 2.385256e+04 | 2.385259e+04 |   0.00%|  99.55%
 1941s|  5000 |   705 | 44671 |   8.6 |   906M | 399 |6168 | 964 |3506 | 602 |  1 |   0 |   0 | 2.385256e+04 | 2.385259e+04 |   0.00%|  99.55%
 1942s|  5100 |   711 | 44688 |   8.5 |   906M | 403 |6168 | 964 |3505 | 617 |  1 |   0 |   0 | 2.385256e+04 | 2.385259e+04 |   0.00%|  99.55%
 1943s|  5200 |   715 | 44704 |   8.3 |   906M | 413 |6168 | 964 |   0 | 628 |  0 |   0 |   0 | 2.385256e+04 | 2.385259e+04 |   0.00%|  99.55%
 1944s|  5300 |   717 | 44712 |   8.2 |   906M | 421 |6168 | 964 |3504 | 633 |  0 |   0 |   0 | 2.385256e+04 | 2.385259e+04 |   0.00%|  99.55%
 1946s|  5400 |   725 | 44726 |   8.0 |   906M | 421 |6168 | 964 |3510 | 646 |  2 |   0 |   0 | 2.385256e+04 | 2.385259e+04 |   0.00%|  99.55%
 time | node  | left  |LP iter|LP it/n|mem/heur|mdpt |vars |cons |rows |cuts |sepa|confs|strbr|  dualbound   | primalbound  |  gap   | compl. 
 1947s|  5500 |   729 | 44740 |   7.9 |   906M | 423 |6168 | 964 |   0 | 657 |  0 |   0 |   0 | 2.385256e+04 | 2.385259e+04 |   0.00%|  99.55%
 1949s|  5600 |   739 | 44756 |   7.7 |   906M | 423 |6168 | 964 |3490 | 669 |  1 |   0 |   0 | 2.385256e+04 | 2.385259e+04 |   0.00%|  99.55%
 1950s|  5700 |   745 | 44773 |   7.6 |   906M | 423 |6168 | 964 |   0 | 680 |  0 |   0 |   0 | 2.385256e+04 | 2.385259e+04 |   0.00%|  99.55%
 1951s|  5800 |   753 | 44790 |   7.5 |   906M | 423 |6168 | 964 |3494 | 692 |  1 |   0 |   0 | 2.385256e+04 | 2.385259e+04 |   0.00%|  99.55%
 1952s|  5900 |   755 | 44799 |   7.3 |   906M | 423 |6168 | 964 |3498 | 699 |  1 |   0 |   0 | 2.385256e+04 | 2.385259e+04 |   0.00%|  99.55%
 1953s|  6000 |   755 | 44811 |   7.2 |   906M | 423 |6168 | 964 |   0 | 708 |  0 |   0 |   0 | 2.385256e+04 | 2.385259e+04 |   0.00%|  99.55%
 1954s|  6100 |   755 | 44821 |   7.1 |   907M | 423 |6168 | 964 |3502 | 714 |  1 |   0 |   0 | 2.385256e+04 | 2.385259e+04 |   0.00%|  99.55%
 1955s|  6200 |   757 | 44828 |   7.0 |   907M | 423 |6168 | 964 |3501 | 717 |  1 |   0 |   0 | 2.385256e+04 | 2.385259e+04 |   0.00%|  99.55%
 1956s|  6300 |   761 | 44836 |   6.9 |   907M | 423 |6168 | 964 |3503 | 723 |  1 |   0 |   0 | 2.385256e+04 | 2.385259e+04 |   0.00%|  99.55%
 2120s|  6400 |   765 | 44847 |   6.8 |   907M | 423 |6168 | 964 |3505 | 730 |  1 |   0 |   0 | 2.385256e+04 | 2.385259e+04 |   0.00%|  99.55%
 2127s|  6500 |   771 | 44856 |   6.7 |   907M | 423 |6168 | 964 |3504 | 737 |  1 |   0 |   0 | 2.385256e+04 | 2.385259e+04 |   0.00%|  99.55%
 2128s|  6600 |   775 | 44866 |   6.6 |   907M | 423 |6168 | 964 |3506 | 744 |  1 |   0 |   0 | 2.385256e+04 | 2.385259e+04 |   0.00%|  99.55%
 2129s|  6700 |   781 | 44876 |   6.5 |   907M | 423 |6168 | 964 |3507 | 749 |  1 |   0 |   0 | 2.385256e+04 | 2.385259e+04 |   0.00%|  99.55%
 2129s|  6800 |   785 | 44885 |   6.4 |   907M | 423 |6168 | 964 |   0 | 755 |  0 |   0 |   0 | 2.385256e+04 | 2.385259e+04 |   0.00%|  99.55%
 2130s|  6900 |   791 | 44894 |   6.3 |   908M | 423 |6168 | 964 |   0 | 763 |  0 |   0 |   0 | 2.385256e+04 | 2.385259e+04 |   0.00%|  99.55%
 time | node  | left  |LP iter|LP it/n|mem/heur|mdpt |vars |cons |rows |cuts |sepa|confs|strbr|  dualbound   | primalbound  |  gap   | compl. 
 2131s|  7000 |   797 | 44905 |   6.2 |   908M | 423 |6168 | 964 |3507 | 768 |  2 |   0 |   0 | 2.385256e+04 | 2.385259e+04 |   0.00%|  99.55%
 2312s|  7100 |   799 | 44914 |   6.1 |   908M | 423 |6168 | 964 |3506 | 774 |  1 |   0 |   0 | 2.385256e+04 | 2.385259e+04 |   0.00%|  99.55%
 2346s|  7200 |   803 | 44921 |   6.0 |   908M | 423 |6168 | 964 |3507 | 777 |  1 |   0 |   0 | 2.385256e+04 | 2.385259e+04 |   0.00%|  99.55%
 2348s|  7300 |   809 | 44930 |   6.0 |   908M | 423 |6168 | 964 |   0 | 782 |  0 |   0 |   0 | 2.385256e+04 | 2.385259e+04 |   0.00%|  99.55%
 2348s|  7400 |   813 | 44934 |   5.9 |   908M | 423 |6168 | 964 |   0 | 785 |  0 |   0 |   0 | 2.385256e+04 | 2.385259e+04 |   0.00%|  99.55%
 2349s|  7500 |   817 | 44940 |   5.8 |   908M | 423 |6168 | 964 |   0 | 787 |  0 |   0 |   0 | 2.385256e+04 | 2.385259e+04 |   0.00%|  99.55%
 2351s|  7600 |   823 | 44954 |   5.7 |   908M | 429 |6168 | 964 |3508 | 798 |  0 |   0 |   0 | 2.385256e+04 | 2.385259e+04 |   0.00%|  99.55%
 2351s|  7700 |   829 | 44964 |   5.7 |   908M | 429 |6168 | 964 |3510 | 806 |  1 |   0 |   0 | 2.385256e+04 | 2.385259e+04 |   0.00%|  99.55%
 2356s|  7800 |   833 | 44972 |   5.6 |   908M | 434 |6168 | 964 |   0 | 810 |  0 |   0 |   0 | 2.385256e+04 | 2.385259e+04 |   0.00%|  99.55%
 2357s|  7900 |   835 | 44982 |   5.5 |   908M | 452 |6168 | 964 |3510 | 817 |  1 |   0 |   0 | 2.385256e+04 | 2.385259e+04 |   0.00%|  99.55%
 2358s|  8000 |   835 | 44990 |   5.4 |   908M | 452 |6168 | 964 |3509 | 820 |  1 |   0 |   0 | 2.385256e+04 | 2.385259e+04 |   0.00%|  99.55%
 2359s|  8100 |   835 | 44997 |   5.4 |   908M | 452 |6168 | 964 |   0 | 823 |  0 |   0 |   0 | 2.385256e+04 | 2.385259e+04 |   0.00%|  99.55%
 2360s|  8200 |   839 | 45006 |   5.3 |   908M | 452 |6168 | 964 |3511 | 825 |  0 |   0 |   0 | 2.385256e+04 | 2.385259e+04 |   0.00%|  99.55%
 2361s|  8300 |   843 | 45013 |   5.2 |   908M | 460 |6168 | 964 |3511 | 828 |  1 |   0 |   0 | 2.385256e+04 | 2.385259e+04 |   0.00%|  99.55%
 2371s|  8400 |   845 | 45019 |   5.2 |   908M | 468 |6168 | 964 |3511 | 830 |  1 |   0 |   0 | 2.385256e+04 | 2.385259e+04 |   0.00%|  99.55%
 time | node  | left  |LP iter|LP it/n|mem/heur|mdpt |vars |cons |rows |cuts |sepa|confs|strbr|  dualbound   | primalbound  |  gap   | compl. 
 2400s|  8500 |   847 | 45024 |   5.1 |   908M | 469 |6168 | 964 |   0 | 835 |  0 |   0 |   0 | 2.385256e+04 | 2.385259e+04 |   0.00%|  99.55%
 2518s|  8600 |   851 | 45030 |   5.1 |   908M | 494 |6168 | 964 |3511 | 856 |  1 |   0 |   0 | 2.385256e+04 | 2.385259e+04 |   0.00%|  99.55%
 2541s|  8700 |   853 | 45033 |   5.0 |   908M | 506 |6168 | 964 |3511 | 862 |  1 |   0 |   0 | 2.385256e+04 | 2.385259e+04 |   0.00%|  99.55%
 2542s|  8800 |   853 | 45037 |   5.0 |   908M | 508 |6168 | 964 |3511 | 867 |  0 |   0 |   0 | 2.385256e+04 | 2.385259e+04 |   0.00%|  99.55%
 2543s|  8900 |   853 | 45042 |   4.9 |   909M | 511 |6168 | 964 |   0 | 868 |  0 |   0 |   0 | 2.385256e+04 | 2.385259e+04 |   0.00%|  99.55%
 2544s|  9000 |   855 | 45044 |   4.8 |   909M | 511 |6168 | 964 |3511 | 868 |  1 |   0 |   0 | 2.385256e+04 | 2.385259e+04 |   0.00%|  99.55%
 2564s|  9100 |   857 | 45048 |   4.8 |   909M | 512 |6168 | 964 |3512 | 873 |  1 |   0 |   0 | 2.385256e+04 | 2.385259e+04 |   0.00%|  99.55%
 2565s|  9200 |   857 | 45052 |   4.7 |   909M | 512 |6168 | 964 |   0 | 878 |  0 |   0 |   0 | 2.385256e+04 | 2.385259e+04 |   0.00%|  99.55%
 2573s|  9300 |   859 | 45056 |   4.7 |   909M | 515 |6168 | 964 |   0 | 883 |  0 |   0 |   0 | 2.385256e+04 | 2.385259e+04 |   0.00%|  99.55%
 2574s|  9400 |   861 | 45061 |   4.6 |   909M | 516 |6168 | 964 |   0 | 886 |  0 |   0 |   0 | 2.385256e+04 | 2.385259e+04 |   0.00%|  99.55%
 2575s|  9500 |   863 | 45065 |   4.6 |   909M | 523 |6168 | 964 |   0 | 890 |  0 |   0 |   0 | 2.385256e+04 | 2.385259e+04 |   0.00%|  99.55%
 2576s|  9600 |   865 | 45069 |   4.5 |   909M | 524 |6168 | 964 |3511 | 891 |  1 |   0 |   0 | 2.385256e+04 | 2.385259e+04 |   0.00%|  99.55%
 2576s|  9700 |   865 | 45072 |   4.5 |   909M | 526 |6168 | 964 |3511 | 892 |  1 |   0 |   0 | 2.385256e+04 | 2.385259e+04 |   0.00%|  99.55%
 2578s|  9800 |   873 | 45080 |   4.5 |   909M | 554 |6168 | 964 |3515 | 901 |  1 |   0 |   0 | 2.385256e+04 | 2.385259e+04 |   0.00%|  99.55%
 2598s|  9900 |   875 | 45088 |   4.4 |   909M | 556 |6168 | 964 |   0 | 909 |  0 |   0 |   0 | 2.385256e+04 | 2.385259e+04 |   0.00%|  99.55%
 time | node  | left  |LP iter|LP it/n|mem/heur|mdpt |vars |cons |rows |cuts |sepa|confs|strbr|  dualbound   | primalbound  |  gap   | compl. 
 2600s| 10000 |   877 | 45097 |   4.4 |   909M | 571 |6168 | 964 |3512 | 912 |  1 |   0 |   0 | 2.385256e+04 | 2.385259e+04 |   0.00%|  99.55%
 2601s| 10100 |   879 | 45105 |   4.3 |   909M | 571 |6168 | 964 |3516 | 918 |  0 |   0 |   0 | 2.385256e+04 | 2.385259e+04 |   0.00%|  99.55%
 2607s| 10200 |   883 | 45114 |   4.3 |   909M | 573 |6168 | 964 |   0 | 925 |  0 |   0 |   0 | 2.385256e+04 | 2.385259e+04 |   0.00%|  99.55%
 2608s| 10300 |   885 | 45122 |   4.2 |   909M | 591 |6168 | 964 |3515 | 932 |  0 |   0 |   0 | 2.385256e+04 | 2.385259e+04 |   0.00%|  99.55%
 2609s| 10400 |   887 | 45131 |   4.2 |   909M | 592 |6168 | 964 |   0 | 935 |  0 |   0 |   0 | 2.385256e+04 | 2.385259e+04 |   0.00%|  99.55%
 2611s| 10500 |   889 | 45137 |   4.2 |   909M | 599 |6168 | 964 |3511 | 937 |  1 |   0 |   0 | 2.385256e+04 | 2.385259e+04 |   0.00%|  99.55%
 2626s| 10600 |   893 | 45147 |   4.1 |   909M | 599 |6168 | 964 |3517 | 946 |  1 |   0 |   0 | 2.385256e+04 | 2.385259e+04 |   0.00%|  99.55%
 2627s| 10700 |   897 | 45157 |   4.1 |   910M | 602 |6168 | 964 |3516 | 954 |  5 |   0 |   0 | 2.385256e+04 | 2.385259e+04 |   0.00%|  99.55%
 2629s| 10800 |   899 | 45166 |   4.0 |   910M | 603 |6168 | 964 |3516 | 962 |  1 |   0 |   0 | 2.385256e+04 | 2.385259e+04 |   0.00%|  99.55%
 2639s| 10900 |   903 | 45173 |   4.0 |   910M | 605 |6168 | 964 |3513 | 967 |  1 |   0 |   0 | 2.385256e+04 | 2.385259e+04 |   0.00%|  99.55%
 2661s| 11000 |   905 | 45184 |   4.0 |   910M | 606 |6168 | 964 |   0 | 974 |  0 |   0 |   0 | 2.385256e+04 | 2.385259e+04 |   0.00%|  99.55%
 2666s| 11100 |   909 | 45196 |   3.9 |   910M | 607 |6168 | 964 |3515 | 986 |  3 |   0 |   0 | 2.385256e+04 | 2.385259e+04 |   0.00%|  99.55%
 2700s| 11200 |   919 | 45201 |   3.9 |   910M | 607 |6168 | 964 |3515 | 994 |  0 |   0 |   0 | 2.385256e+04 | 2.385259e+04 |   0.00%|  99.55%
 2702s| 11300 |   927 | 45206 |   3.9 |   910M | 609 |6168 | 964 |3513 |1002 |  1 |   0 |   0 | 2.385256e+04 | 2.385259e+04 |   0.00%|  99.55%
 2703s| 11400 |   929 | 45214 |   3.8 |   911M | 609 |6168 | 964 |   0 |1006 |  0 |   0 |   0 | 2.385256e+04 | 2.385259e+04 |   0.00%|  99.55%
 time | node  | left  |LP iter|LP it/n|mem/heur|mdpt |vars |cons |rows |cuts |sepa|confs|strbr|  dualbound   | primalbound  |  gap   | compl. 
 2725s| 11500 |   933 | 45219 |   3.8 |   911M | 613 |6168 | 964 |3516 |1014 |  0 |   0 |   0 | 2.385256e+04 | 2.385259e+04 |   0.00%|  99.55%
 2727s| 11600 |   943 | 45227 |   3.8 |   911M | 624 |6168 | 964 |3517 |1035 |  1 |   0 |   0 | 2.385256e+04 | 2.385259e+04 |   0.00%|  99.55%
 2728s| 11700 |   949 | 45235 |   3.7 |   911M | 628 |6168 | 964 |3517 |1042 |  1 |   0 |   0 | 2.385256e+04 | 2.385259e+04 |   0.00%|  99.55%
 2731s| 11800 |   951 | 45243 |   3.7 |   911M | 628 |6168 | 964 |3517 |1052 |  1 |   0 |   0 | 2.385256e+04 | 2.385259e+04 |   0.00%|  99.55%
 2901s| 11900 |   955 | 45250 |   3.7 |   912M | 634 |6168 | 964 |   0 |1061 |  0 |   0 |   0 | 2.385256e+04 | 2.385259e+04 |   0.00%|  99.55%
 2903s| 12000 |   959 | 45254 |   3.7 |   912M | 634 |6168 | 964 |3515 |1065 |  1 |   0 |   0 | 2.385256e+04 | 2.385259e+04 |   0.00%|  99.55%
 2906s| 12100 |   963 | 45272 |   3.6 |   912M | 639 |6168 | 964 |3513 |1086 |  0 |   0 |   0 | 2.385256e+04 | 2.385259e+04 |   0.00%|  99.55%
 2908s| 12200 |   967 | 45282 |   3.6 |   912M | 639 |6168 | 964 |   0 |1098 |  0 |   0 |   0 | 2.385256e+04 | 2.385259e+04 |   0.00%|  99.55%
 2911s| 12300 |   973 | 45295 |   3.6 |   912M | 639 |6168 | 964 |3517 |1113 |  1 |   0 |   0 | 2.385256e+04 | 2.385259e+04 |   0.00%|  99.55%
 2914s| 12400 |   977 | 45298 |   3.5 |   912M | 655 |6168 | 964 |3515 |1121 |  1 |   0 |   0 | 2.385256e+04 | 2.385259e+04 |   0.00%|  99.55%
 2916s| 12500 |   983 | 45310 |   3.5 |   913M | 655 |6168 | 964 |3516 |1136 |  1 |   0 |   0 | 2.385256e+04 | 2.385259e+04 |   0.00%|  99.55%
 2919s| 12600 |   987 | 45314 |   3.5 |   913M | 655 |6168 | 964 |3514 |1140 |  0 |   0 |   0 | 2.385256e+04 | 2.385259e+04 |   0.00%|  99.55%
 2922s| 12700 |   991 | 45324 |   3.5 |   913M | 659 |6168 | 964 |   0 |1151 |  0 |   0 |   0 | 2.385256e+04 | 2.385259e+04 |   0.00%|  99.55%
 2925s| 12800 |   995 | 45330 |   3.4 |   913M | 659 |6168 | 964 |3517 |1160 |  0 |   0 |   0 | 2.385256e+04 | 2.385259e+04 |   0.00%|  99.55%
 2928s| 12900 |   999 | 45337 |   3.4 |   913M | 664 |6168 | 964 |3517 |1168 |  1 |   0 |   0 | 2.385256e+04 | 2.385259e+04 |   0.00%|  99.55%
 time | node  | left  |LP iter|LP it/n|mem/heur|mdpt |vars |cons |rows |cuts |sepa|confs|strbr|  dualbound   | primalbound  |  gap   | compl. 
 2932s| 13000 |  1003 | 45344 |   3.4 |   913M | 665 |6168 | 964 |3517 |1178 |  1 |   0 |   0 | 2.385256e+04 | 2.385259e+04 |   0.00%|  99.55%
 2934s| 13100 |  1005 | 45348 |   3.4 |   913M | 665 |6168 | 964 |3513 |1180 |  0 |   0 |   0 | 2.385256e+04 | 2.385259e+04 |   0.00%|  99.55%
 2936s| 13200 |  1009 | 45353 |   3.3 |   913M | 665 |6168 | 964 |3513 |1183 |  0 |   0 |   0 | 2.385256e+04 | 2.385259e+04 |   0.00%|  99.55%
 2939s| 13300 |  1015 | 45366 |   3.3 |   913M | 665 |6168 | 964 |3517 |1196 |  1 |   0 |   0 | 2.385256e+04 | 2.385259e+04 |   0.00%|  99.55%
 2942s| 13400 |  1021 | 45381 |   3.3 |   914M | 665 |6168 | 964 |3479 |1215 |  1 |   0 |   0 | 2.385256e+04 | 2.385259e+04 |   0.00%|  99.56%
